stable/1.0/Bcp/examples/BAC/bac.lp
\Problem name: 

Minimize
obj:  - x0 - x1 - x2 - x3 - x4 - x5 - x6 - x7 - x8 - x9
Subject To
c0:  x0 + x1 = 1
c1:  x1 + x2 <= 1
c2:  x2 + x3 <= 1
c3:  x3 + x4 <= 1
c4:  x4 + x5 <= 1
c5:  x5 + x6 <= 1
c6:  x6 + x7 <= 1
c7:  x7 + x8 <= 1
c8:  x8 + x9 <= 1
c9:  x0 + x9 <= 1
c10:  x1 + x3 + x9 <= 1
c11:  x0 + x2 + x4 <= 1
c12:  x0 + x3 + x7 <= 1
c13:  x1 + x4 + x5 <= 1
c14:  x5 + x6 + x7 <= 1
c15:  x0 + x6 + x8 <= 1
Bounds
 0 <= x0 <= 1
 0 <= x1 <= 1
 0 <= x2 <= 1
 0 <= x3 <= 1
 0 <= x4 <= 1
 0 <= x5 <= 1
 0 <= x6 <= 1
 0 <= x7 <= 1
 0 <= x8 <= 1
 0 <= x9 <= 1
Integers
x0 x1 x2 x3 x4 x5 x6 x7 x8 x9 
End
